sifdecoder -A pc64.lnx.gfo -st   STNQP2

 Problem name: STNQP2

 Double precision version will be formed

 The objective function uses 16383 nonlinear groups
 
 There are 4095 linear equality constraints
 
 There are 8193 variables bounded from below and above 
 
 
 File successfully decoded
 CUTEST: tools (double precision version) compiled successfully
 CUTEst: ipopt (double precision version) compiled successfully

******************************************************************************
This program contains Ipopt, a library for large-scale nonlinear optimization.
 Ipopt is released as open source code under the Eclipse Public License (EPL).
         For more information visit http://projects.coin-or.org/Ipopt
******************************************************************************

This is Ipopt version trunk, running with linear solver ma57.

Number of nonzeros in equality constraint Jacobian...:    28665
Number of nonzeros in inequality constraint Jacobian.:        0
Number of nonzeros in Lagrangian Hessian.............:    57333

Reallocating memory for MA57: lfact (2448159)
Reallocating memory for MA57: lfact (2962644)
Total number of variables............................:     8193
                     variables with only lower bounds:        0
                variables with lower and upper bounds:     8193
                     variables with only upper bounds:        0
Total number of equality constraints.................:     4095
Total number of inequality constraints...............:        0
        inequality constraints with only lower bounds:        0
   inequality constraints with lower and upper bounds:        0
        inequality constraints with only upper bounds:        0

iter    objective    inf_pr   inf_du lg(mu)  ||d||  lg(rg) alpha_du alpha_pr  ls
   0 -6.2448000e+04 6.50e+00 1.00e+02  -1.0 0.00e+00    -  0.00e+00 0.00e+00   0
   1 -2.6552483e+05 5.82e+00 2.32e+02  -1.0 1.41e+01   2.0 1.50e-01 1.05e-01f  1
   2 -2.7189853e+05 5.72e+00 2.12e+02  -1.0 1.40e+00   2.4 7.87e-01 1.61e-02f  1
   3 -3.1985637e+05 5.56e+00 1.85e+02  -1.0 1.22e+01   1.9 3.33e-01 2.86e-02f  1
   4 -3.6802239e+05 4.33e+00 1.68e+02  -1.0 1.06e+00   2.4 1.00e+00 2.20e-01f  1
   5 -3.8815234e+05 3.93e+00 1.39e+02  -1.0 4.63e+00   1.9 7.11e-01 9.36e-02f  1
   6 -3.9455074e+05 3.84e+00 1.07e+02  -1.0 2.39e+01   1.4 2.75e-01 2.21e-02f  1
   7 -4.0197460e+05 3.80e+00 9.57e+01  -1.0 6.90e+01   0.9 4.80e-02 1.11e-02f  1
   8 -4.1480476e+05 3.52e+00 9.38e+01  -1.0 4.14e+00   1.4 1.00e+00 7.37e-02f  1
   9 -4.3000308e+05 3.35e+00 1.24e+02  -1.0 1.56e+01   0.9 2.51e-01 4.88e-02f  1
iter    objective    inf_pr   inf_du lg(mu)  ||d||  lg(rg) alpha_du alpha_pr  ls
  10 -4.4343336e+05 3.00e+00 4.86e+01  -1.0 1.94e+00   1.3 1.00e+00 1.04e-01f  1
  11 -4.6155513e+05 2.70e+00 6.02e+01  -1.0 5.60e+00   0.8 6.77e-01 1.01e-01f  1
  12 -4.7612680e+05 2.53e+00 5.79e+01  -1.0 1.43e+01   0.4 2.73e-01 6.07e-02f  1
  13 -4.8776470e+05 2.44e+00 6.06e+01  -1.0 1.72e+01  -0.1 2.17e-01 3.89e-02f  1
  14 -4.9919539e+05 2.28e+00 5.45e+01  -1.0 1.27e+01    -  3.01e-01 6.40e-02f  1
  15 -5.1660491e+05 1.80e+00 1.89e+01  -1.0 2.30e+00    -  1.00e+00 2.11e-01f  1
  16 -5.7435652e+05 2.44e-15 3.98e-13  -1.0 3.53e-01    -  1.00e+00 1.00e+00f  1
  17 -5.7486115e+05 9.99e-16 5.68e-13  -1.7 2.22e-02    -  1.00e+00 1.00e+00f  1
  18 -5.7496915e+05 4.44e-16 6.25e-13  -3.8 5.04e-03    -  1.00e+00 1.00e+00f  1
  19 -5.7497000e+05 4.44e-16 4.55e-13  -5.7 4.42e-05    -  1.00e+00 1.00e+00f  1
iter    objective    inf_pr   inf_du lg(mu)  ||d||  lg(rg) alpha_du alpha_pr  ls
  20 -5.7497001e+05 1.11e-16 4.55e-13  -8.6 4.57e-07    -  1.00e+00 1.00e+00f  1

Number of Iterations....: 20

                                   (scaled)                 (unscaled)
Objective...............:  -1.5476985405063877e+05   -5.7497000779812294e+05
Dual infeasibility......:   4.5474735088646412e-13    1.6893864085432141e-12
Constraint violation....:   1.1102230246251565e-16    1.1102230246251565e-16
Complementarity.........:   2.5061585964282262e-09    9.3103791857308602e-09
Overall NLP error.......:   2.5061585964282262e-09    9.3103791857308602e-09


Number of objective function evaluations             = 21
Number of objective gradient evaluations             = 21
Number of equality constraint evaluations            = 21
Number of inequality constraint evaluations          = 0
Number of equality constraint Jacobian evaluations   = 21
Number of inequality constraint Jacobian evaluations = 0
Number of Lagrangian Hessian evaluations             = 20
Total CPU secs in IPOPT (w/o function evaluations)   =     10.221
Total CPU secs in NLP function evaluations           =      1.029

EXIT: Optimal Solution Found.

************************ CUTEst statistics ************************


 Package used            :  IPOPT
 Problem                 :  STNQP2    
 # variables             =            8193
 # constraints           =            4095
 # objective functions   =        0.4300000E+02
 # objective gradients   =        0.2200000E+02
 # objective Hessians    =        0.2100000E+02
 # Hessian-vector prdct  =        0.0000000E+00
 # constraints functions =        0.4400000E+02
 # constraints gradients =        0.2300000E+02
 # constraints Hessians  =        0.2100000E+02
 Exit code               =               0
 Final f                 =       -5.7497000779812294D+05
 Bounds feasibility      =        1.9992076882857646D-08
 Set up time             =            0.82 seconds
 Solve time              =           22.28 seconds


******************************************************************

